(set-logic QF_S)
(declare-fun var0 () String)
(declare-fun var1 () String)
(declare-fun var2 () String)
(declare-fun var3 () String)
(declare-fun var4 () String)
(declare-fun var5 () String)
(declare-fun var6 () String)
(declare-fun var7 () String)
(declare-fun var8 () String)
(declare-fun var9 () String)
(declare-fun var10 () String)
(declare-fun var11 () String)
(declare-fun var12 () String)
(declare-fun var13 () String)
(declare-fun var14 () String)
(declare-fun var15 () String)
(declare-fun var16 () String)
(declare-fun var17 () String)
(declare-fun var18 () String)
(declare-fun var19 () String)
(declare-fun var20 () String)
(declare-fun var21 () String)
(declare-fun var22 () String)
(declare-fun var23 () String)
(declare-fun var24 () String)
(declare-fun var25 () String)
(declare-fun var26 () String)
(declare-fun var27 () String)
(declare-fun var28 () String)
(declare-fun var29 () String)
(declare-fun var30 () String)
(declare-fun var31 () String)
(declare-fun var32 () String)
(declare-fun var33 () String)
(declare-fun var34 () String)
(declare-fun var35 () String)
(declare-fun var36 () String)
(declare-fun var37 () String)
(declare-fun var38 () String)
(declare-fun var39 () String)
(declare-fun var40 () String)
(declare-fun var41 () String)
(declare-fun var42 () String)
(declare-fun var43 () String)
(declare-fun var44 () String)
(declare-fun var45 () String)
(declare-fun var46 () String)
(declare-fun var47 () String)
(declare-fun var48 () String)
(declare-fun var49 () String)
(declare-fun var50 () String)
(declare-fun var51 () String)
(declare-fun var52 () String)
(declare-fun var53 () String)
(declare-fun var54 () String)
(declare-fun var55 () String)
(declare-fun var56 () String)
(declare-fun var57 () String)
(declare-fun var58 () String)
(declare-fun var59 () String)
(declare-fun var60 () String)
(assert (= var0 (Concat var1 var2)))
(assert (= var2 (Concat var3 var4)))
(assert (= var4 (Concat var5 var6)))
(assert (= var6 (Concat var7 var8)))
(assert (= var8 (Concat var9 var10)))
(assert (= var10 (Concat var11 var12)))
(assert (= var12 (Concat var13 var14)))
(assert (= var14 (Concat var15 var16)))
(assert (= var16 (Concat var17 var18)))
(assert (= var18 (Concat var19 var20)))
(assert (= var20 (Concat var21 var22)))
(assert (= var22 (Concat var23 var24)))
(assert (= var24 (Concat var25 var26)))
(assert (= var26 (Concat var27 var28)))
(assert (= var28 (Concat var29 var30)))
(assert (= var30 (Concat var31 var32)))
(assert (= var32 (Concat var33 var34)))
(assert (= var34 (Concat var35 var36)))
(assert (= var36 (Concat var37 var38)))
(assert (= var38 (Concat var39 var40)))
(assert (= var40 (Concat var41 var42)))
(assert (= var42 (Concat var43 var44)))
(assert (= var44 (Concat var45 var46)))
(assert (= var46 (Concat var47 var48)))
(assert (= var48 (Concat var49 var50)))
(assert (= var50 (Concat var51 var52)))
(assert (= var52 (Concat var53 var54)))
(assert (= var54 (Concat var55 var56)))
(assert (= var56 (Concat var57 var58)))
(assert (= var58 (Concat var59 var60)))
(assert (= var0 "solution"))
(assert (= "m" (CharAt var47 402)))
(assert (= "n" (CharAt var5 823)))
(assert (= "r" (CharAt var8 959)))
(assert (= "i" (CharAt var8 998)))
(assert (= "." (CharAt var44 18)))
(assert (= ";" (CharAt var39 628)))
(assert (= "k" (CharAt var28 117)))
(assert (= "+" (CharAt var49 148)))
(assert (= "v" (CharAt var53 613)))
(assert (= "K" (CharAt var54 46)))
(assert (= "!" (CharAt var60 441)))
(assert (= "G" (CharAt var42 986)))
(assert (= "w" (CharAt var52 94)))
(assert (= ";" (CharAt var0 543)))
(assert (= "," (CharAt var48 57)))
(assert (= ";" (CharAt var6 251)))
(assert (= "[" (CharAt var6 724)))
(assert (= "I" (CharAt var27 454)))
(assert (= "p" (CharAt var22 824)))
(assert (= "G" (CharAt var58 344)))
(assert (= "u" (CharAt var33 715)))
(assert (= "#" (CharAt var36 136)))
(assert (= "i" (CharAt var49 355)))
(assert (= "@" (CharAt var39 264)))
(assert (= "g" (CharAt var8 237)))
(assert (= "S" (CharAt var10 855)))
(assert (= "K" (CharAt var14 603)))
(assert (= "8" (CharAt var46 940)))
(assert (= "S" (CharAt var40 135)))
(assert (= "@" (CharAt var35 722)))
(assert (= "]" (CharAt var6 410)))
(assert (= "J" (CharAt var49 903)))
(assert (= "P" (CharAt var54 217)))
(assert (= "]" (CharAt var20 883)))
(assert (= "?" (CharAt var39 552)))
(assert (= "p" (CharAt var31 363)))
(assert (= "F" (CharAt var7 473)))
(assert (= "9" (CharAt var21 494)))
(assert (= "$" (CharAt var24 161)))
(assert (= "+" (CharAt var54 598)))
(assert (= "$" (CharAt var48 467)))
(assert (= "e" (CharAt var38 641)))
(assert (= "*" (CharAt var59 706)))
(assert (= "A" (CharAt var57 623)))
(assert (= "-" (CharAt var41 383)))
(assert (= "C" (CharAt var51 927)))
(assert (= "K" (CharAt var52 417)))
(assert (= "B" (CharAt var50 887)))
(assert (= "w" (CharAt var38 735)))
(assert (= "b" (CharAt var60 402)))
(assert (= "N" (CharAt var30 223)))
(assert (= "j" (CharAt var17 956)))
(assert (= "!" (CharAt var34 754)))
(assert (= "h" (CharAt var15 944)))
(assert (= "n" (CharAt var16 795)))
(assert (= "." (CharAt var38 47)))
(assert (= "\\" (CharAt var21 20)))
(assert (= "R" (CharAt var16 385)))
(assert (= "&" (CharAt var26 813)))
(assert (= "!" (CharAt var42 783)))
(assert (= "8" (CharAt var26 22)))
(assert (= "D" (CharAt var58 0)))
(assert (= "F" (CharAt var48 900)))
(assert (= "j" (CharAt var60 289)))
(assert (= "C" (CharAt var20 133)))
(assert (= "K" (CharAt var17 215)))
(assert (= "k" (CharAt var8 15)))
(assert (= "x" (CharAt var28 369)))
(assert (= "o" (CharAt var17 383)))
(assert (= "7" (CharAt var48 603)))
(assert (= "i" (CharAt var38 381)))
(assert (= "g" (CharAt var1 432)))
(assert (= "j" (CharAt var56 92)))
(assert (= "-" (CharAt var22 297)))
(assert (= "}" (CharAt var4 963)))
(assert (= "F" (CharAt var59 773)))
(assert (= "e" (CharAt var60 765)))
(assert (= "-" (CharAt var44 916)))
(assert (= "3" (CharAt var4 672)))
(assert (= "n" (CharAt var13 457)))
(assert (= "@" (CharAt var41 398)))
(assert (= "B" (CharAt var60 274)))
(assert (= "x" (CharAt var51 273)))
(assert (= "U" (CharAt var35 952)))
(assert (= "L" (CharAt var19 816)))
(assert (= "(" (CharAt var39 882)))
(assert (= "}" (CharAt var8 282)))
(assert (= "V" (CharAt var57 33)))
(assert (= "L" (CharAt var27 274)))
(assert (= "O" (CharAt var0 130)))
(assert (= "j" (CharAt var54 12)))
(assert (= "l" (CharAt var39 814)))
(assert (= "E" (CharAt var46 320)))
(assert (= "S" (CharAt var56 829)))
(assert (= "E" (CharAt var50 191)))
(assert (= "q" (CharAt var39 871)))
(assert (= "n" (CharAt var22 26)))
(assert (= "<" (CharAt var43 467)))
(assert (= "\\" (CharAt var56 547)))
(assert (= "@" (CharAt var36 810)))
(assert (= "O" (CharAt var56 423)))
(assert (= "<" (CharAt var44 54)))
(assert (= "9" (CharAt var44 593)))
(assert (= "q" (CharAt var44 930)))
(assert (= "T" (CharAt var29 727)))
(assert (= "T" (CharAt var46 711)))
(assert (= "s" (CharAt var6 127)))
(assert (= "y" (CharAt var14 700)))
(assert (= "V" (CharAt var46 953)))
(assert (= "W" (CharAt var0 44)))
(assert (= "U" (CharAt var41 864)))
(assert (= "x" (CharAt var15 840)))
(assert (= "e" (CharAt var6 1000)))
(assert (= "C" (CharAt var31 732)))
(assert (= "g" (CharAt var41 500)))
(assert (= "C" (CharAt var18 554)))
(assert (= "Q" (CharAt var39 116)))
(assert (= "=" (CharAt var17 41)))
(assert (= "." (CharAt var60 350)))
(assert (= "M" (CharAt var25 296)))
(assert (= "|" (CharAt var36 761)))
(assert (= "#" (CharAt var54 715)))
(assert (= "F" (CharAt var49 889)))
(assert (= "," (CharAt var6 382)))
(assert (= "C" (CharAt var16 901)))
(assert (= "8" (CharAt var28 546)))
(assert (= "[" (CharAt var53 860)))
(assert (= "L" (CharAt var8 191)))
(assert (= "/" (CharAt var29 307)))
(assert (= "^" (CharAt var17 762)))
(assert (= "q" (CharAt var38 541)))
(assert (= "\\" (CharAt var46 382)))
(assert (= "," (CharAt var53 57)))
(assert (= "v" (CharAt var45 464)))
(assert (= "S" (CharAt var3 456)))
(assert (= "[" (CharAt var1 549)))
(assert (= "9" (CharAt var58 819)))
(assert (= "p" (CharAt var43 738)))
(assert (= "2" (CharAt var28 686)))
(assert (= "G" (CharAt var1 341)))
(assert (= "C" (CharAt var27 817)))
(assert (= "4" (CharAt var36 651)))
(assert (= "@" (CharAt var7 307)))
(assert (= "m" (CharAt var23 909)))
(assert (= "]" (CharAt var33 420)))
(assert (= "@" (CharAt var6 887)))
(assert (= "l" (CharAt var25 292)))
(assert (= "T" (CharAt var51 764)))
(assert (= "H" (CharAt var18 208)))
(assert (= "2" (CharAt var11 118)))
(assert (= "K" (CharAt var5 653)))
(assert (= "\"" (CharAt var48 636)))
(assert (= "4" (CharAt var46 323)))
(assert (= "l" (CharAt var0 826)))
(assert (= "<" (CharAt var30 519)))
(assert (= "$" (CharAt var28 665)))
(assert (= "3" (CharAt var48 829)))
(assert (= "F" (CharAt var36 112)))
(assert (= "u" (CharAt var21 517)))
(assert (= "[" (CharAt var19 41)))
(assert (= "7" (CharAt var35 377)))
(assert (= "?" (CharAt var50 127)))
(assert (= "o" (CharAt var44 210)))
(assert (= "\\" (CharAt var28 767)))
(assert (= "-" (CharAt var32 621)))
(assert (= "X" (CharAt var0 974)))
(assert (= "s" (CharAt var36 184)))
(assert (= "@" (CharAt var21 295)))
(assert (= "x" (CharAt var2 89)))
(assert (= "_" (CharAt var47 158)))
(assert (= "]" (CharAt var43 693)))
(assert (= "'" (CharAt var46 890)))
(assert (= "2" (CharAt var17 967)))
(assert (= "p" (CharAt var5 970)))
(assert (= "x" (CharAt var52 920)))
(assert (= "7" (CharAt var36 256)))
(assert (= "=" (CharAt var14 767)))
(assert (= "u" (CharAt var21 926)))
(assert (= "i" (CharAt var16 283)))
(assert (= ")" (CharAt var43 868)))
(assert (= "1" (CharAt var36 275)))
(assert (= "{" (CharAt var36 493)))
(assert (= "b" (CharAt var9 643)))
(assert (= ":" (CharAt var16 452)))
(assert (= "l" (CharAt var47 32)))
(assert (= "x" (CharAt var13 456)))
(assert (= "u" (CharAt var58 877)))
(assert (= "{" (CharAt var6 703)))
(assert (= "/" (CharAt var38 43)))
(assert (= "5" (CharAt var30 324)))
(assert (= "-" (CharAt var37 784)))
(assert (= "c" (CharAt var40 125)))
(assert (= "m" (CharAt var17 503)))
(assert (= "7" (CharAt var56 797)))
(assert (= "6" (CharAt var58 329)))
(assert (= "(" (CharAt var8 205)))
(assert (= "#" (CharAt var18 633)))
(assert (= "?" (CharAt var20 472)))
(assert (= "L" (CharAt var15 38)))
(assert (= "6" (CharAt var46 462)))
(assert (= "J" (CharAt var34 733)))
(assert (= "Z" (CharAt var19 418)))
(assert (= "\"" (CharAt var55 582)))
(assert (= "i" (CharAt var18 334)))
(assert (= "W" (CharAt var3 721)))
(assert (= "Q" (CharAt var9 903)))
(assert (= "@" (CharAt var40 417)))
(assert (= "|" (CharAt var14 539)))
(assert (= "O" (CharAt var40 994)))
(assert (= "&" (CharAt var31 326)))
(assert (= "6" (CharAt var51 188)))
(assert (= "B" (CharAt var40 425)))
(assert (= "#" (CharAt var16 540)))
(assert (= "j" (CharAt var48 561)))
(assert (= "8" (CharAt var36 293)))
(assert (= "I" (CharAt var54 731)))
(assert (= "z" (CharAt var29 667)))
(assert (= "g" (CharAt var18 764)))
(assert (= "1" (CharAt var6 8)))
(assert (= "h" (CharAt var41 488)))
(assert (= "z" (CharAt var35 977)))
(assert (= "?" (CharAt var3 509)))
(assert (= "t" (CharAt var27 348)))
(assert (= "j" (CharAt var33 148)))
(assert (= "n" (CharAt var4 606)))
(assert (= "a" (CharAt var37 581)))
(assert (= "T" (CharAt var8 830)))
(assert (= "[" (CharAt var9 719)))
(assert (= "i" (CharAt var24 793)))
(assert (= "s" (CharAt var56 355)))
(assert (= "q" (CharAt var2 513)))
(assert (= "F" (CharAt var34 590)))
(assert (= "N" (CharAt var52 601)))
(assert (= "f" (CharAt var25 558)))
(assert (= "Y" (CharAt var35 894)))
(assert (= "^" (CharAt var11 856)))
(assert (= "l" (CharAt var29 200)))
(assert (= "~" (CharAt var2 609)))
(assert (= ">" (CharAt var14 121)))
(assert (= "d" (CharAt var29 148)))
(assert (= "k" (CharAt var35 223)))
(assert (= "Q" (CharAt var51 550)))
(assert (= "l" (CharAt var55 439)))
(assert (= "K" (CharAt var54 459)))
(assert (= "t" (CharAt var5 457)))
(assert (= "P" (CharAt var55 368)))
(assert (= "P" (CharAt var38 722)))
(assert (= "E" (CharAt var10 300)))
(assert (= "@" (CharAt var4 417)))
(assert (= "o" (CharAt var55 571)))
(assert (= "y" (CharAt var10 525)))
(assert (= "t" (CharAt var49 725)))
(assert (= "x" (CharAt var12 656)))
(assert (= "q" (CharAt var51 182)))
(assert (= "*" (CharAt var22 710)))
(assert (= "z" (CharAt var2 901)))
(assert (= "}" (CharAt var27 445)))
(assert (= "/" (CharAt var26 66)))
(assert (= "z" (CharAt var27 490)))
(assert (= "n" (CharAt var19 408)))
(assert (= "W" (CharAt var51 388)))
(assert (= "Q" (CharAt var44 105)))
(assert (= "D" (CharAt var6 513)))
(assert (= ":" (CharAt var18 445)))
(assert (= "U" (CharAt var19 297)))
(assert (= "~" (CharAt var56 372)))
(assert (= "!" (CharAt var40 824)))
(assert (= "t" (CharAt var52 948)))
(assert (= "_" (CharAt var18 126)))
(assert (= "R" (CharAt var47 981)))
(assert (= "I" (CharAt var56 74)))
(assert (= "Q" (CharAt var1 695)))
(assert (= "I" (CharAt var5 254)))
(assert (= "p" (CharAt var3 281)))
(assert (= "4" (CharAt var57 529)))
(assert (= "q" (CharAt var12 215)))
(assert (= "k" (CharAt var58 423)))
(assert (= "/" (CharAt var44 683)))
(assert (= "M" (CharAt var1 216)))
(assert (= "Y" (CharAt var15 107)))
(assert (= "k" (CharAt var34 701)))
(assert (= "1" (CharAt var3 373)))
(assert (= "T" (CharAt var11 393)))
(assert (= "=" (CharAt var23 376)))
(assert (= "E" (CharAt var35 703)))
(assert (= "A" (CharAt var27 349)))
(assert (= "4" (CharAt var54 21)))
(assert (= "z" (CharAt var6 403)))
(assert (= "8" (CharAt var43 460)))
(assert (= "L" (CharAt var29 470)))
(assert (= "f" (CharAt var11 637)))
(assert (= "U" (CharAt var41 169)))
(assert (= "V" (CharAt var16 576)))
(assert (= "K" (CharAt var44 123)))
(assert (= "x" (CharAt var9 725)))
(assert (= ">" (CharAt var2 819)))
(assert (= "B" (CharAt var42 230)))
(assert (= "^" (CharAt var2 411)))
(assert (= "2" (CharAt var50 696)))
(assert (= "q" (CharAt var22 295)))
(assert (= ")" (CharAt var46 414)))
(assert (= "," (CharAt var29 572)))
(assert (= "_" (CharAt var40 515)))
(assert (= "]" (CharAt var59 502)))
(assert (= "$" (CharAt var17 450)))
(assert (= "U" (CharAt var16 95)))
(assert (= "." (CharAt var16 98)))
(assert (= "F" (CharAt var28 682)))
(assert (= "'" (CharAt var8 105)))
(assert (= "G" (CharAt var33 291)))
(assert (= "w" (CharAt var50 499)))
(assert (= "K" (CharAt var9 551)))
(assert (= "0" (CharAt var0 101)))
(assert (= "W" (CharAt var55 676)))
(assert (= "(" (CharAt var21 224)))
(assert (= "w" (CharAt var36 288)))
(assert (= "n" (CharAt var18 158)))
(assert (= "\\" (CharAt var44 985)))
(assert (= "'" (CharAt var39 936)))
(assert (= "|" (CharAt var51 122)))
(assert (= "X" (CharAt var5 804)))
(assert (= ")" (CharAt var6 9)))
(assert (= "O" (CharAt var36 554)))
(assert (= "&" (CharAt var7 675)))
(assert (= "(" (CharAt var19 932)))
(assert (= "+" (CharAt var48 122)))
(assert (= "D" (CharAt var34 199)))
(assert (= "O" (CharAt var36 291)))
(assert (= "k" (CharAt var59 865)))
(assert (= "B" (CharAt var51 792)))
(assert (= "*" (CharAt var18 886)))
(assert (= "w" (CharAt var24 64)))
(assert (= "Q" (CharAt var29 920)))
(assert (= "B" (CharAt var44 480)))
(assert (= "!" (CharAt var52 952)))
(assert (= "J" (CharAt var38 39)))
(assert (= "X" (CharAt var52 872)))
(assert (= "J" (CharAt var38 891)))
(assert (= "H" (CharAt var1 999)))
(assert (= "l" (CharAt var21 975)))
(assert (= "K" (CharAt var51 643)))
(assert (= "D" (CharAt var40 143)))
(assert (= "Y" (CharAt var5 251)))
(assert (= "_" (CharAt var27 409)))
(assert (= "0" (CharAt var12 477)))
(assert (= "9" (CharAt var10 813)))
(assert (= "C" (CharAt var44 574)))
(assert (= "8" (CharAt var54 879)))
(assert (= "S" (CharAt var25 916)))
(assert (= "L" (CharAt var24 125)))
(assert (= ":" (CharAt var24 530)))
(assert (= "'" (CharAt var0 790)))
(assert (= "H" (CharAt var1 148)))
(assert (= "Z" (CharAt var23 273)))
(assert (= "{" (CharAt var7 859)))
(assert (= "8" (CharAt var23 192)))
(assert (= "k" (CharAt var60 972)))
(assert (= "\\" (CharAt var31 388)))
(assert (= "z" (CharAt var31 207)))
(assert (= "v" (CharAt var25 124)))
(assert (= "M" (CharAt var19 310)))
(assert (= "W" (CharAt var19 232)))
(assert (= "N" (CharAt var5 983)))
(assert (= "p" (CharAt var60 745)))
(assert (= "+" (CharAt var29 370)))
(assert (= "b" (CharAt var48 622)))
(assert (= "@" (CharAt var13 271)))
(assert (= "z" (CharAt var30 540)))
(assert (= "^" (CharAt var47 205)))
(assert (= "n" (CharAt var53 788)))
(assert (= "W" (CharAt var1 42)))
(assert (= "B" (CharAt var50 767)))
(assert (= "H" (CharAt var40 334)))
(assert (= "<" (CharAt var38 594)))
(assert (= "," (CharAt var37 810)))
(assert (= "p" (CharAt var58 437)))
(assert (= "C" (CharAt var26 873)))
(assert (= "^" (CharAt var31 791)))
(assert (= "i" (CharAt var0 639)))
(assert (= "n" (CharAt var3 84)))
(assert (= "%" (CharAt var14 857)))
(assert (= "(" (CharAt var2 737)))
(assert (= "*" (CharAt var45 733)))
(assert (= "#" (CharAt var5 521)))
(assert (= "c" (CharAt var22 896)))
(assert (= "@" (CharAt var60 242)))
(assert (= "r" (CharAt var0 527)))
(assert (= "7" (CharAt var24 907)))
(assert (= "g" (CharAt var21 385)))
(assert (= "%" (CharAt var46 672)))
(assert (= "Z" (CharAt var15 340)))
(assert (= "}" (CharAt var45 983)))
(assert (= "+" (CharAt var58 875)))
(assert (= "W" (CharAt var9 577)))
(assert (= "n" (CharAt var34 527)))
(assert (= "m" (CharAt var2 383)))
(assert (= "&" (CharAt var17 827)))
(assert (= "m" (CharAt var8 75)))
(assert (= "H" (CharAt var48 435)))
(assert (= "Y" (CharAt var54 527)))
(assert (= "u" (CharAt var7 886)))
(assert (= "T" (CharAt var9 158)))
(assert (= "P" (CharAt var42 94)))
(assert (= "<" (CharAt var9 480)))
(assert (= "i" (CharAt var52 665)))
(assert (= "8" (CharAt var14 843)))
(assert (= "Y" (CharAt var21 110)))
(assert (= "Y" (CharAt var16 597)))
(assert (= "V" (CharAt var8 121)))
(assert (= "7" (CharAt var45 844)))
(assert (= "M" (CharAt var35 306)))
(assert (= "K" (CharAt var51 179)))
(assert (= ")" (CharAt var39 931)))
(assert (= "Y" (CharAt var44 91)))
(assert (= "`" (CharAt var26 21)))
(assert (= "[" (CharAt var23 658)))
(assert (= "m" (CharAt var47 207)))
(assert (= "\\" (CharAt var30 46)))
(assert (= "9" (CharAt var29 432)))
(assert (= "c" (CharAt var15 695)))
(assert (= "'" (CharAt var48 356)))
(assert (= "<" (CharAt var23 110)))
(assert (= ";" (CharAt var34 354)))
(assert (= "1" (CharAt var26 411)))
(assert (= "4" (CharAt var6 850)))
(assert (= "p" (CharAt var53 336)))
(assert (= "e" (CharAt var0 709)))
(assert (= "i" (CharAt var41 538)))
(assert (= "Q" (CharAt var13 443)))
(assert (= "z" (CharAt var16 483)))
(assert (= "y" (CharAt var9 82)))
(assert (= ":" (CharAt var35 907)))
(assert (= "J" (CharAt var11 351)))
(assert (= "`" (CharAt var21 91)))
(assert (= "X" (CharAt var19 457)))
(assert (= "q" (CharAt var32 730)))
(assert (= "e" (CharAt var59 728)))
(assert (= "l" (CharAt var58 116)))
(assert (= "[" (CharAt var47 176)))
(assert (= "k" (CharAt var3 766)))
(assert (= "~" (CharAt var10 832)))
(assert (= "%" (CharAt var8 680)))
(assert (= "o" (CharAt var42 490)))
(assert (= "+" (CharAt var20 882)))
(assert (= "I" (CharAt var58 249)))
(assert (= "t" (CharAt var15 495)))
(assert (= "O" (CharAt var33 701)))
(assert (= "=" (CharAt var26 102)))
(assert (= "8" (CharAt var41 122)))
(assert (= "x" (CharAt var55 767)))
(assert (= "]" (CharAt var23 855)))
(assert (= "A" (CharAt var8 313)))
(assert (= "v" (CharAt var26 53)))
(assert (= "(" (CharAt var12 786)))
(assert (= "s" (CharAt var6 76)))
(assert (= "Y" (CharAt var12 534)))
(assert (= "%" (CharAt var43 639)))
(assert (= "A" (CharAt var14 186)))
(assert (= "}" (CharAt var46 441)))
(assert (= "P" (CharAt var37 133)))
(assert (= ":" (CharAt var7 93)))
(assert (= "t" (CharAt var6 514)))
(assert (= "i" (CharAt var41 174)))
(assert (= "v" (CharAt var49 451)))
(assert (= "r" (CharAt var29 986)))
(assert (= "c" (CharAt var42 111)))
(assert (= "\\" (CharAt var15 833)))
(assert (= "/" (CharAt var16 288)))
(assert (= "M" (CharAt var36 455)))
(assert (= "}" (CharAt var6 918)))
(assert (= "J" (CharAt var13 682)))
(assert (= "Z" (CharAt var28 215)))
(assert (= "W" (CharAt var30 648)))
(assert (= "^" (CharAt var27 377)))
(assert (= "5" (CharAt var1 210)))
(assert (= "^" (CharAt var39 71)))
(assert (= "V" (CharAt var46 50)))
(assert (= "z" (CharAt var23 225)))
(assert (= "I" (CharAt var9 118)))
(assert (= "L" (CharAt var49 713)))
(assert (= "3" (CharAt var0 27)))
(assert (= "T" (CharAt var43 75)))
(assert (= "_" (CharAt var34 899)))
(assert (= "C" (CharAt var17 756)))
(assert (= "k" (CharAt var8 783)))
(assert (= "%" (CharAt var2 390)))
(assert (= "P" (CharAt var2 765)))
(assert (= "s" (CharAt var5 985)))
(assert (= "d" (CharAt var53 2)))
(assert (= "|" (CharAt var12 999)))
(assert (= "-" (CharAt var20 595)))
(assert (= "H" (CharAt var31 351)))
(assert (= "b" (CharAt var50 975)))
(assert (= "." (CharAt var2 435)))
(assert (= "U" (CharAt var48 737)))
(assert (= "1" (CharAt var5 363)))
(assert (= "\\" (CharAt var6 866)))
(assert (= "W" (CharAt var24 600)))
(assert (= "q" (CharAt var2 273)))
(assert (= "`" (CharAt var53 623)))
(assert (= "\"" (CharAt var17 487)))
(assert (= "0" (CharAt var57 165)))
(assert (= "U" (CharAt var21 535)))
(assert (= "s" (CharAt var29 530)))
(assert (= "N" (CharAt var37 834)))
(assert (= "," (CharAt var2 693)))
(assert (= "g" (CharAt var5 388)))
(assert (= "-" (CharAt var20 71)))
(assert (= "s" (CharAt var36 970)))
(assert (= "!" (CharAt var34 249)))
(assert (= ">" (CharAt var48 364)))
(assert (= "h" (CharAt var48 222)))
(assert (= "@" (CharAt var58 748)))
(assert (= "R" (CharAt var9 355)))
(assert (= "Q" (CharAt var14 273)))
(assert (= "W" (CharAt var59 786)))
(assert (= "R" (CharAt var20 156)))
(assert (= "G" (CharAt var23 872)))
(assert (= "&" (CharAt var56 420)))
(assert (= "c" (CharAt var29 166)))
(assert (= "^" (CharAt var8 367)))
(assert (= "5" (CharAt var38 262)))
(assert (= "v" (CharAt var56 648)))
(assert (= "T" (CharAt var9 492)))
(assert (= "@" (CharAt var15 27)))
(assert (= "S" (CharAt var38 955)))
(assert (= "Y" (CharAt var54 420)))
(assert (= ";" (CharAt var60 967)))
(assert (= "P" (CharAt var4 340)))
(assert (= "U" (CharAt var48 399)))
(assert (= "8" (CharAt var5 498)))
(assert (= "$" (CharAt var30 20)))
(assert (= "^" (CharAt var8 422)))
(assert (= "t" (CharAt var0 163)))
(assert (= "t" (CharAt var30 792)))
(assert (= "}" (CharAt var54 992)))
(assert (= "Z" (CharAt var11 567)))
(assert (= "v" (CharAt var29 174)))
(assert (= "[" (CharAt var33 158)))
(assert (= "P" (CharAt var24 151)))
(assert (= "&" (CharAt var55 237)))
(assert (= "4" (CharAt var58 24)))
(assert (= "u" (CharAt var37 817)))
(assert (= "t" (CharAt var51 751)))
(assert (= "#" (CharAt var46 671)))
(assert (= "6" (CharAt var12 299)))
(assert (= "i" (CharAt var19 399)))
(assert (= "#" (CharAt var9 36)))
(assert (= "p" (CharAt var20 818)))
(assert (= "e" (CharAt var15 252)))
(assert (= "T" (CharAt var21 432)))
(assert (= "_" (CharAt var2 16)))
(assert (= "_" (CharAt var50 601)))
(assert (= "o" (CharAt var57 143)))
(assert (= "c" (CharAt var32 218)))
(assert (= "+" (CharAt var10 749)))
(assert (= "U" (CharAt var40 595)))
(assert (= "k" (CharAt var41 814)))
(assert (= "\"" (CharAt var41 627)))
(assert (= "&" (CharAt var56 333)))
(assert (= "'" (CharAt var30 621)))
(assert (= "Q" (CharAt var24 663)))
(assert (= "W" (CharAt var32 49)))
(assert (= "o" (CharAt var1 495)))
(assert (= "<" (CharAt var2 900)))
(assert (= "#" (CharAt var19 820)))
(assert (= "v" (CharAt var49 11)))
(assert (= "k" (CharAt var57 162)))
(assert (= "4" (CharAt var23 887)))
(assert (= "p" (CharAt var38 179)))
(assert (= "Q" (CharAt var31 817)))
(assert (= "#" (CharAt var37 642)))
(assert (= "u" (CharAt var47 143)))
(assert (= "," (CharAt var23 164)))
(assert (= "|" (CharAt var38 522)))
(assert (= "z" (CharAt var22 452)))
(assert (= ")" (CharAt var12 334)))
(assert (= "Q" (CharAt var24 493)))
(assert (= "Q" (CharAt var50 314)))
(assert (= "I" (CharAt var52 401)))
(assert (= "a" (CharAt var40 396)))
(assert (= "." (CharAt var50 42)))
(assert (= "f" (CharAt var3 142)))
(assert (= "j" (CharAt var23 332)))
(assert (= "_" (CharAt var28 91)))
(assert (= "a" (CharAt var10 675)))
(assert (= "d" (CharAt var48 215)))
(assert (= "@" (CharAt var35 546)))
(assert (= "g" (CharAt var36 1000)))
(assert (= "+" (CharAt var1 150)))
(assert (= "+" (CharAt var48 452)))
(assert (= "E" (CharAt var38 409)))
(assert (= "N" (CharAt var26 636)))
(assert (= "8" (CharAt var40 745)))
(assert (= "I" (CharAt var46 876)))
(assert (= "8" (CharAt var27 266)))
(assert (= "h" (CharAt var40 88)))
(assert (= "'" (CharAt var46 921)))
(assert (= ";" (CharAt var23 554)))
(assert (= "o" (CharAt var6 367)))
(assert (= "k" (CharAt var13 79)))
(assert (= "q" (CharAt var35 564)))
(assert (= "'" (CharAt var9 567)))
(assert (= "O" (CharAt var17 590)))
(assert (= "<" (CharAt var24 281)))
(assert (= "&" (CharAt var11 268)))
(assert (= "i" (CharAt var50 377)))
(assert (= "@" (CharAt var10 848)))
(assert (= "b" (CharAt var52 987)))
(assert (= "9" (CharAt var33 631)))
(assert (= "P" (CharAt var13 295)))
(assert (= "i" (CharAt var35 744)))
(assert (= "\"" (CharAt var27 736)))
(assert (= "b" (CharAt var13 930)))
(assert (= "E" (CharAt var1 773)))
(assert (= "6" (CharAt var54 893)))
(assert (= "E" (CharAt var12 510)))
(assert (= "i" (CharAt var34 42)))
(assert (= "=" (CharAt var38 137)))
(assert (= "w" (CharAt var8 816)))
(assert (= "Q" (CharAt var1 28)))
(assert (= "b" (CharAt var56 771)))
(assert (= "~" (CharAt var48 80)))
(assert (= "L" (CharAt var3 590)))
(assert (= "2" (CharAt var38 886)))
(assert (= "Z" (CharAt var22 255)))
(assert (= "C" (CharAt var53 309)))
(assert (= "T" (CharAt var17 471)))
(assert (= "f" (CharAt var35 266)))
(assert (= "8" (CharAt var4 259)))
(assert (= ":" (CharAt var11 347)))
(assert (= "'" (CharAt var51 523)))
(assert (= "j" (CharAt var20 327)))
(assert (= "z" (CharAt var56 232)))
(assert (= "}" (CharAt var59 759)))
(assert (= "_" (CharAt var55 610)))
(assert (= "B" (CharAt var31 18)))
(assert (= "6" (CharAt var10 994)))
(assert (= "z" (CharAt var8 461)))
(assert (= "i" (CharAt var45 567)))
(assert (= "s" (CharAt var58 438)))
(assert (= "t" (CharAt var26 82)))
(assert (= "`" (CharAt var28 416)))
(assert (= "H" (CharAt var25 651)))
(assert (= "<" (CharAt var40 797)))
(assert (= "4" (CharAt var2 525)))
(assert (= "Y" (CharAt var5 937)))
(assert (= "F" (CharAt var43 684)))
(assert (= "^" (CharAt var18 548)))
(assert (= ";" (CharAt var56 483)))
(assert (= "=" (CharAt var39 872)))
(assert (= "j" (CharAt var54 777)))
(assert (= "o" (CharAt var48 451)))
(assert (= "^" (CharAt var26 691)))
(assert (= "\"" (CharAt var13 696)))
(assert (= "%" (CharAt var18 801)))
(assert (= "B" (CharAt var57 642)))
(assert (= "1" (CharAt var53 191)))
(assert (= "!" (CharAt var4 187)))
(assert (= "|" (CharAt var48 814)))
(assert (= "," (CharAt var34 682)))
(assert (= "Q" (CharAt var31 68)))
(assert (= "0" (CharAt var24 57)))
(assert (= "S" (CharAt var29 466)))
(assert (= "~" (CharAt var50 326)))
(assert (= "e" (CharAt var55 756)))
(assert (= "|" (CharAt var55 896)))
(assert (= "#" (CharAt var22 171)))
(assert (= "'" (CharAt var51 517)))
(assert (= "g" (CharAt var32 298)))
(assert (= ")" (CharAt var32 962)))
(assert (= "m" (CharAt var41 44)))
(assert (= "z" (CharAt var43 679)))
(assert (= "h" (CharAt var18 774)))
(assert (= "B" (CharAt var19 658)))
(assert (= "V" (CharAt var8 718)))
(assert (= "h" (CharAt var4 808)))
(assert (= "Q" (CharAt var21 824)))
(assert (= "|" (CharAt var14 884)))
(assert (= "E" (CharAt var5 590)))
(assert (= "H" (CharAt var6 429)))
(assert (= "c" (CharAt var38 543)))
(assert (= "}" (CharAt var34 608)))
(assert (= "n" (CharAt var23 280)))
(assert (= "/" (CharAt var29 657)))
(assert (= "*" (CharAt var2 392)))
(assert (= "2" (CharAt var26 0)))
(assert (= "{" (CharAt var60 201)))
(assert (= "7" (CharAt var50 391)))
(assert (= ")" (CharAt var6 75)))
(assert (= "P" (CharAt var41 321)))
(assert (= "T" (CharAt var55 244)))
(assert (= "x" (CharAt var3 864)))
(assert (= "W" (CharAt var23 996)))
(assert (= "X" (CharAt var10 89)))
(assert (= "H" (CharAt var55 386)))
(assert (= "h" (CharAt var43 704)))
(assert (= "r" (CharAt var32 678)))
(assert (= "\\" (CharAt var8 928)))
(assert (= "l" (CharAt var41 300)))
(assert (= "q" (CharAt var57 527)))
(assert (= "#" (CharAt var15 900)))
(assert (= "f" (CharAt var32 352)))
(assert (= "O" (CharAt var27 33)))
(assert (= "B" (CharAt var26 609)))
(assert (= ":" (CharAt var46 160)))
(assert (= "I" (CharAt var28 883)))
(assert (= "!" (CharAt var57 903)))
(assert (= "J" (CharAt var38 775)))
(assert (= "y" (CharAt var14 786)))
(assert (= ";" (CharAt var30 87)))
(assert (= "5" (CharAt var49 592)))
(assert (= "5" (CharAt var53 633)))
(assert (= "q" (CharAt var53 985)))
(assert (= "C" (CharAt var25 629)))
(assert (= "i" (CharAt var19 581)))
(assert (= "i" (CharAt var58 38)))
(assert (= "r" (CharAt var1 850)))
(assert (= "k" (CharAt var42 486)))
(assert (= "/" (CharAt var5 579)))
(assert (= "}" (CharAt var10 867)))
(check-sat)
(get-model)